Instance name : poa-n100-7
Authors       : Isaiah Reimer (isaiah.reimer@rideco.com). RideCo (rideco.com)
Date          : 2023-03-05
Reference     : Rideco PDPTW Solver
Solution
Route 1 : 23 1 51 44 94 9 59 14 73 42 92 64 39 46 96 29 89 79
Route 2 : 26 76 5 55 2 45 95 52 47 50 100 22 97 72 43 93 13 36 63 86 27 77
Route 3 : 16 66 17 67 32 82 12 25 75 62 6 15 41 91 56 65 11 28 78 33 61 83
Route 4 : 48 8 98 58 30 40 90 80 34 19 69 84 3 4 54 53 24 35 74 85
Route 5 : 38 88 20 70 37 49 87 99 31 81 21 71 10 60 7 18 68 57
